Traveling Salesman Problem/TSP_generados/Aleatorio1620391290_15.tsp
NAME: Aleatorio1620391290_15.tsp
COMMENT: Randomly generated scenario
TYPE: TSP
DIMENSION: 15
EDGE_WEIGHT_TYPE: ATT
NODE_COORD_SECTION
1 30.84 3.92
2 13.32 39.81
3 43.36 48.93
4 21.31 38.09
5 39.88 43.26
6 31.71 28.75
7 38.7 17.74
8 41.76 14.18
9 48.84 1.35
10 25.73 46.26
11 34.57 27.07
12 8.16 23.85
13 8.68 29.3
14 16.66 23.49
15 35.16 23.97
