Traveling Salesman Problem/TSP_generados/Aleatorio1620391290_15.opt.tour
NAME: Aleatorio1620391290_15.opt.tour
COMMENT: Optimal solution for Aleatorio1620391290_15 (159.40499919452054)
TYPE: TOUR
DIMENSION: 15
TOUR_SECTION
1 14 12 13 2 4 10 3 5 6 11 15 7 8 9
-1
EOF
